(set-option :produce-models true)
(set-logic QF_UF)
(declare-fun p30() Bool)
(declare-fun p15() Bool)
(declare-fun p51() Bool)
(declare-fun p36() Bool)
(declare-fun p27() Bool)
(declare-fun p9() Bool)
(declare-fun p44() Bool)
(declare-fun p11() Bool)
(declare-fun p32() Bool)
(declare-fun p79() Bool)
(declare-fun p25() Bool)
(declare-fun p73() Bool)
(declare-fun p43() Bool)
(declare-fun p13() Bool)
(declare-fun p12() Bool)
(declare-fun p41() Bool)
(declare-fun p70() Bool)
(declare-fun p38() Bool)
(declare-fun p57() Bool)
(declare-fun p48() Bool)
(declare-fun p56() Bool)
(declare-fun p1() Bool)
(declare-fun p45() Bool)
(declare-fun p50() Bool)
(declare-fun p61() Bool)
(declare-fun p63() Bool)
(declare-fun p65() Bool)
(declare-fun p47() Bool)
(declare-fun p10() Bool)
(declare-fun p49() Bool)
(declare-fun p2() Bool)
(declare-fun p54() Bool)
(declare-fun p17() Bool)
(declare-fun p14() Bool)
(declare-fun p4() Bool)
(declare-fun p76() Bool)
(declare-fun p62() Bool)
(declare-fun p19() Bool)
(declare-fun p29() Bool)
(declare-fun p7() Bool)
(declare-fun p39() Bool)
(declare-fun p35() Bool)
(declare-fun p71() Bool)
(declare-fun p46() Bool)
(declare-fun p64() Bool)
(declare-fun p23() Bool)
(declare-fun p59() Bool)
(declare-fun p53() Bool)
(declare-fun p21() Bool)
(declare-fun p0() Bool)
(declare-fun p68() Bool)
(declare-fun p60() Bool)
(declare-fun p58() Bool)
(declare-fun p75() Bool)
(declare-fun p72() Bool)
(declare-fun p5() Bool)
(declare-fun p33() Bool)
(declare-fun p28() Bool)
(declare-fun p22() Bool)
(declare-fun p8() Bool)
(declare-fun p31() Bool)
(declare-fun p78() Bool)
(declare-fun p77() Bool)
(declare-fun p52() Bool)
(declare-fun p34() Bool)
(declare-fun p55() Bool)
(declare-fun p26() Bool)
(declare-fun p18() Bool)
(declare-fun p66() Bool)
(declare-fun p74() Bool)
(declare-fun p40() Bool)
(declare-fun p6() Bool)
(declare-fun p42() Bool)
(declare-fun p69() Bool)
(declare-fun p20() Bool)
(declare-fun p24() Bool)
(declare-fun p16() Bool)
(declare-fun p3() Bool)
(declare-fun p37() Bool)
(declare-fun p67() Bool)
(assert
(and (or (not p30) (not p15) (not p51)) (or p36 (not p27) (not p27)) (or (not p9) (not p44) p11) (or p11 (not p32) (not p32)) (or (not p79) p25 p73) (or (not p43) p13 (not p36)) (or p12 p41 (not p70)) (or (not p43) (not p38) (not p57)) (or p15 (not p30) (not p48)) (or p56 p1 p45) (or p50 p61 p43) (or (not p1) (not p63) (not p9)) (or p65 p73 (not p47)) (or (not p10) p49 p70) (or p48 p12 p2) (or (not p54) p17 p14) (or (not p13) p4 (not p76)) (or p62 p19 p29) (or p7 (not p39) (not p76)) (or p35 p70 p9) (or p71 (not p46) (not p64)) (or p23 (not p51) (not p45)) (or p59 p51 (not p53)) (or p62 (not p27) (not p25)) (or (not p21) (not p0) (not p53)) (or (not p68) (not p65) (not p57)) (or (not p57) p0 (not p60)) (or (not p7) (not p29) p58) (or (not p19) (not p4) (not p17)) (or (not p39) (not p50) (not p14)) (or (not p75) (not p45) p72) (or p7 (not p56) p5) (or (not p13) (not p60) p36) (or (not p73) (not p10) (not p30)) (or p33 (not p28) (not p79)) (or (not p64) p49 (not p41)) (or p64 p35 (not p46)) (or (not p2) p15 p0) (or p22 p79 (not p29)) (or p8 (not p10) p31) (or (not p21) (not p11) p78) (or (not p77) (not p17) p60) (or p5 (not p23) p54) (or (not p7) p61 (not p52)) (or (not p34) (not p12) (not p48)) (or (not p33) (not p30) (not p44)) (or p47 (not p45) (not p65)) (or p25 p25 (not p55)) (or (not p55) p76 (not p79)) (or p68 p10 (not p21)) (or (not p19) (not p39) p9) (or p54 (not p49) p43) (or p26 p8 (not p58)) (or (not p18) p52 p76) (or (not p66) (not p64) p74) (or p52 (not p59) (not p31)) (or (not p55) (not p54) p30) (or (not p2) (not p28) p30) (or p68 (not p60) p46) (or p39 p46 (not p1)) (or p48 p77 (not p8)) (or p17 p40 (not p79)) (or (not p35) p30 (not p57)) (or p55 p76 (not p73)) (or (not p52) (not p59) (not p45)) (or p15 (not p63) p27) (or (not p59) (not p47) (not p0)) (or (not p72) p6 p42) (or p7 (not p26) p0) (or (not p31) (not p69) p2) (or p20 p38 p74) (or (not p79) (not p6) (not p60)) (or p70 p70 p22) (or (not p35) p29 p5) (or (not p69) (not p39) (not p57)) (or p24 (not p30) p28) (or p29 (not p38) (not p17)) (or (not p45) (not p54) (not p7)) (or (not p29) (not p65) (not p16)) (or (not p61) (not p56) (not p14)) (or p63 (not p29) (not p79)) (or p74 (not p68) (not p54)) (or p39 (not p32) (not p25)) (or (not p73) (not p30) (not p65)) (or p73 (not p69) p71) (or (not p0) p23 p0) (or p18 p18 p42) (or (not p51) p1 p73) (or p74 (not p48) p40) (or p47 (not p1) p42) (or p3 (not p50) (not p29)) (or p15 p47 (not p3)) (or (not p43) p3 (not p37)) (or (not p45) p73 p51) (or (not p33) (not p24) p18) (or p22 p20 (not p73)) (or p0 (not p41) p56) (or p51 p37 p47) (or (not p4) (not p65) p58) (or p30 (not p10) p46) (or p32 p56 p26) (or p45 (not p76) (not p54)) (or p33 p72 (not p73)) (or (not p77) p21 (not p11)) (or (not p46) (not p26) p36) (or p38 (not p50) p36) (or p62 p23 p47) (or (not p46) (not p46) p16) (or p28 p35 p77) (or p25 p53 (not p35)) (or (not p5) p4 (not p60)) (or p79 p73 p30) (or p49 p19 p9) (or p76 (not p13) (not p44)) (or (not p15) p45 (not p71)) (or (not p41) (not p10) p9) (or (not p15) (not p0) p1) (or (not p30) (not p73) (not p20)) (or p72 p39 (not p19)) (or (not p55) p40 (not p68)) (or (not p59) p26 (not p77)) (or p8 p61 (not p10)) (or p65 (not p48) p54) (or (not p58) p29 (not p46)) (or p18 (not p3) p19) (or (not p72) (not p63) (not p38)) (or (not p15) (not p54) p45) (or p33 (not p61) (not p49)) (or p28 (not p1) p50) (or (not p2) p56 p69) (or (not p39) p76 (not p72)) (or (not p79) p75 p33) (or p71 p58 p24) (or (not p41) (not p64) (not p8)) (or (not p58) p49 (not p70)) (or (not p77) p67 (not p73)) (or (not p10) p37 p68) (or (not p35) p27 p20) (or (not p28) p70 p21) (or p54 p26 p57) (or (not p13) p16 (not p64)) (or (not p50) (not p41) (not p76)) (or (not p4) (not p49) (not p50)) (or p9 (not p41) (not p4)) (or (not p42) p41 (not p23)) (or p54 p2 p2) (or p72 p26 p16) (or (not p34) p63 (not p63)) (or p42 (not p53) (not p39)) (or (not p23) p54 (not p35)) (or p31 p25 p64) (or (not p58) p29 (not p76)) (or p54 (not p31) (not p26)) (or (not p39) p58 (not p26)) (or (not p11) p34 (not p52)) (or p38 (not p4) p45) (or (not p31) (not p55) p79) (or (not p46) p39 p20) (or (not p9) (not p38) (not p56)) (or (not p19) p19 p76) (or p36 p33 p40) (or p6 p37 p10) (or (not p47) (not p79) (not p70)) (or p55 p68 (not p79)) (or p56 (not p13) (not p39)) (or (not p47) (not p13) p37) (or p27 (not p79) p14) (or p75 p13 p18) (or (not p70) (not p32) (not p18)) (or (not p52) (not p21) (not p34)) (or p59 p61 (not p23)) (or (not p28) p28 (not p4)) (or p74 (not p39) (not p71)) (or (not p67) p60 (not p62)) (or p5 (not p6) p45) (or (not p10) p51 (not p12)) (or (not p53) (not p76) (not p38)) (or (not p68) (not p30) (not p36)) (or p44 p4 p0) (or p16 p42 (not p45)) (or (not p68) p48 p18) (or p24 p58 p43) (or p52 (not p69) p29) (or p42 (not p44) (not p29)) (or (not p21) p29 (not p28)) (or p58 p22 p20) (or (not p59) p34 (not p4)) (or (not p13) (not p16) (not p76)) (or p47 (not p29) p36) (or (not p26) (not p61) p57) (or p13 p19 (not p78)) (or (not p8) (not p65) p39) (or p5 (not p66) (not p52)) (or (not p77) p55 p9) (or p26 p19 (not p66)) (or p33 p49 (not p53)) (or (not p79) p44 (not p18)) (or p74 p63 (not p71)) (or (not p63) p29 (not p75)) (or p3 p31 p49) (or p45 p42 p73) (or (not p7) (not p10) p9) (or (not p7) p26 p1) (or (not p60) p17 p78) (or (not p64) p54 p13) (or p25 p11 (not p21)) (or p53 (not p78) p25) (or (not p27) p4 (not p50)) (or (not p30) p8 p2) (or (not p50) (not p77) (not p31)) (or (not p73) (not p54) (not p18)) (or (not p78) (not p72) (not p17)) (or p74 (not p46) (not p64)) (or p60 p16 (not p39)) (or p19 (not p40) (not p6)) (or (not p66) p79 (not p34)) (or (not p54) p29 p61) (or (not p59) p45 p7) (or p46 (not p79) (not p2)) (or (not p12) p14 (not p7)) (or p14 p0 p62) (or p24 p60 p65) (or p69 (not p24) p27) (or (not p77) (not p36) (not p46)) (or p74 (not p35) (not p3)) (or (not p66) p58 p31) (or (not p52) (not p54) p6) (or (not p27) p30 (not p30)) (or p23 p3 (not p38)) (or p6 p49 (not p43)) (or p67 (not p71) p11) (or p2 p20 p35) (or p43 (not p29) (not p23)) (or p38 (not p40) p70) (or (not p29) p25 p62) (or p17 (not p6) p66) (or p59 (not p24) p47) (or p31 p66 p77) (or p64 (not p20) p50) (or p26 p71 p49) (or p18 (not p8) p7) (or p60 (not p11) p31) (or (not p57) p13 p35) (or p26 (not p67) p6) (or p72 p9 p60) (or (not p48) p53 p3) (or (not p7) p12 (not p71)) (or (not p78) (not p53) (not p56)) (or p21 (not p46) p26) (or p55 (not p9) p61) (or p1 (not p34) (not p73)) (or (not p47) p40 (not p75)) (or p72 (not p12) p26) (or (not p21) p2 p73) (or (not p29) p67 p75) (or (not p29) (not p23) p45) (or (not p48) p14 p64) (or (not p48) p59 p7) (or p39 p68 p63) (or (not p31) (not p23) p38) (or (not p14) (not p14) (not p46)) (or p48 p32 (not p13)) (or p51 p24 (not p41)) (or (not p35) (not p41) p21) (or (not p45) p38 (not p22)) (or (not p47) (not p43) (not p20)) (or (not p72) p5 (not p75)) (or (not p25) p53 (not p29)) (or p23 p73 (not p56)) (or (not p18) (not p45) (not p51)) (or (not p50) p53 p53) (or p65 (not p25) p70) (or (not p61) p74 p17) (or p46 (not p37) p31) (or p10 (not p52) p47) (or (not p62) p41 p41) (or (not p42) p79 p35) (or p31 (not p53) (not p75)) (or (not p45) (not p78) (not p29)) (or (not p75) (not p8) (not p27)) (or (not p29) p74 (not p46)) (or (not p59) p40 p35) (or (not p79) p73 p39) (or (not p66) (not p27) (not p19)) (or (not p9) p45 (not p3)) (or (not p29) (not p57) p43) (or (not p51) p78 (not p43)) (or p52 p54 p0) (or p50 p32 (not p73)) (or p21 (not p69) (not p14)) (or (not p16) p7 (not p40)) (or (not p74) (not p56) (not p9)) (or p63 p25 (not p22)) (or (not p68) p24 (not p58)) (or p74 (not p62) p1) (or p50 (not p57) p0) (or (not p14) p32 (not p52)) (or p28 p29 (not p0)) (or p20 p10 p3) (or p46 p27 (not p42)) (or p16 p37 (not p53)) (or p62 p40 p1) (or p22 p78 p44) (or p47 (not p6) p77) (or (not p74) p71 p75) (or (not p20) p22 p11) (or p55 (not p71) p49) (or p39 (not p36) (not p52)) (or (not p44) (not p59) p16) (or (not p38) p76 p43) (or (not p33) p41 p51) (or p68 (not p68) (not p55)) (or p10 p61 (not p39)) (or (not p2) p5 (not p20)) (or p20 p64 (not p37)) (or (not p48) p20 (not p44)) (or p45 (not p15) (not p38)) (or p43 (not p45) (not p20)) (or (not p49) (not p54) (not p69)) (or p14 p15 p18) (or p77 (not p5) (not p57)) (or (not p59) (not p36) p31) (or p12 (not p14) (not p78)) (or (not p7) (not p13) (not p68)) (or p21 p1 p59) (or (not p77) (not p37) (not p44)) (or p69 p51 (not p15)) (or p28 p65 p19) (or (not p10) (not p8) p75) (or (not p27) (not p76) (not p69)) (or (not p29) (not p53) p19) (or p76 (not p37) (not p37)) (or (not p34) (not p56) (not p32)) (or (not p45) (not p30) p68) (or p73 p41 p5) (or (not p29) (not p9) (not p34)) (or p37 (not p46) (not p35)))
)
(check-sat)
(get-model)
